&CONTROL
   calculation      = 'scf'
   verbosity        = 'high'
   tstress          = .true.
   tprnfor          = .true.
   outdir           = './output/'
   prefix           = 'scf'
   etot_conv_thr    = 1e-05
   forc_conv_thr    = 0.0001
   pseudo_dir       = '.'
/
&SYSTEM
   ibrav            = 0
   ecutwfc          = 60
   ecutrho          = 480
   occupations      = 'smearing'
   degauss          = 0.01
   smearing         = 'cold'
   nspin            = 2
   starting_magnetization(1) = 0.2
   starting_magnetization(2) = -0.2
   starting_magnetization(3) = 0.0
   ntyp             = 3
   nat              = 4
/
&ELECTRONS
   electron_maxstep = 1000
   conv_thr         = 1e-9
   mixing_mode      = 'plain'
   mixing_beta      = 0.2
   diagonalization  = 'david'
/
&IONS
/
&CELL
/
&FCP
/
&RISM
/
ATOMIC_SPECIES
Ni  58.6934 Ni.UPF
Ni1 58.6934 Ni.UPF
O  15.9994 O.UPF

K_POINTS automatic
8 8 8  0 0 0

CELL_PARAMETERS angstrom
4.17000000000000 2.08500000000000 2.08500000000000
2.08500000000000 4.17000000000000 2.08500000000000
2.08500000000000 2.08500000000000 4.17000000000000

ATOMIC_POSITIONS crystal
Ni  0.0000000000 0.0000000000 0.0000000000  
Ni1 0.5000000000 0.5000000000 0.5000000000  
O  0.2500000000 0.2500000000 0.2500000000  
O  0.7500000000 0.7500000000 0.7500000000  

HUBBARD ortho-atomic
U Ni-3d 6
U Ni1-3d 6

