&control
  prefix = 'Ni'
  verbosity = 'high'
  calculation = 'nscf'
  outdir = './outputs'
  pseudo_dir = '.'
/

&system
  ibrav = 0
  nat = 2
  ntyp = 2
  starting_magnetization(1) = 0.1
  starting_magnetization(2) = -0.1
  ecutwfc = 40.0
  occupations = 'smearing'
  nbnd = 18
  nspin = 2
  degauss = 0.01
/

&electrons
  conv_thr = 1.0e-6
/

ATOMIC_SPECIES
Ni 58.6934   Ni.UPF
Ni1 58.6934   Ni.UPF

CELL_PARAMETERS (angstrom)
4.957940101623535 0.0 0.0
1.2394850254058838 2.1468510392237925 0.0
1.2394850254058838 0.7156170130745974 2.0240705707100397

ATOMIC_POSITIONS (crystal) 
Ni  0.0 0.0 0.0
Ni1  0.5 0.0 0.0

K_POINTS (crystal)
125
 0.0 0.0 0.0 0.008
 0.2 0.0 0.0 0.008
 0.4 0.0 0.0 0.008
 0.6 0.0 0.0 0.008
 0.8 0.0 0.0 0.008
 0.0 0.2 0.0 0.008
 0.2 0.2 0.0 0.008
 0.4 0.2 0.0 0.008
 0.6 0.2 0.0 0.008
 0.8 0.2 0.0 0.008
 0.0 0.4 0.0 0.008
 0.2 0.4 0.0 0.008
 0.4 0.4 0.0 0.008
 0.6 0.4 0.0 0.008
 0.8 0.4 0.0 0.008
 0.0 0.6 0.0 0.008
 0.2 0.6 0.0 0.008
 0.4 0.6 0.0 0.008
 0.6 0.6 0.0 0.008
 0.8 0.6 0.0 0.008
 0.0 0.8 0.0 0.008
 0.2 0.8 0.0 0.008
 0.4 0.8 0.0 0.008
 0.6 0.8 0.0 0.008
 0.8 0.8 0.0 0.008
 0.0 0.0 0.2 0.008
 0.2 0.0 0.2 0.008
 0.4 0.0 0.2 0.008
 0.6 0.0 0.2 0.008
 0.8 0.0 0.2 0.008
 0.0 0.2 0.2 0.008
 0.2 0.2 0.2 0.008
 0.4 0.2 0.2 0.008
 0.6 0.2 0.2 0.008
 0.8 0.2 0.2 0.008
 0.0 0.4 0.2 0.008
 0.2 0.4 0.2 0.008
 0.4 0.4 0.2 0.008
 0.6 0.4 0.2 0.008
 0.8 0.4 0.2 0.008
 0.0 0.6 0.2 0.008
 0.2 0.6 0.2 0.008
 0.4 0.6 0.2 0.008
 0.6 0.6 0.2 0.008
 0.8 0.6 0.2 0.008
 0.0 0.8 0.2 0.008
 0.2 0.8 0.2 0.008
 0.4 0.8 0.2 0.008
 0.6 0.8 0.2 0.008
 0.8 0.8 0.2 0.008
 0.0 0.0 0.4 0.008
 0.2 0.0 0.4 0.008
 0.4 0.0 0.4 0.008
 0.6 0.0 0.4 0.008
 0.8 0.0 0.4 0.008
 0.0 0.2 0.4 0.008
 0.2 0.2 0.4 0.008
 0.4 0.2 0.4 0.008
 0.6 0.2 0.4 0.008
 0.8 0.2 0.4 0.008
 0.0 0.4 0.4 0.008
 0.2 0.4 0.4 0.008
 0.4 0.4 0.4 0.008
 0.6 0.4 0.4 0.008
 0.8 0.4 0.4 0.008
 0.0 0.6 0.4 0.008
 0.2 0.6 0.4 0.008
 0.4 0.6 0.4 0.008
 0.6 0.6 0.4 0.008
 0.8 0.6 0.4 0.008
 0.0 0.8 0.4 0.008
 0.2 0.8 0.4 0.008
 0.4 0.8 0.4 0.008
 0.6 0.8 0.4 0.008
 0.8 0.8 0.4 0.008
 0.0 0.0 0.6 0.008
 0.2 0.0 0.6 0.008
 0.4 0.0 0.6 0.008
 0.6 0.0 0.6 0.008
 0.8 0.0 0.6 0.008
 0.0 0.2 0.6 0.008
 0.2 0.2 0.6 0.008
 0.4 0.2 0.6 0.008
 0.6 0.2 0.6 0.008
 0.8 0.2 0.6 0.008
 0.0 0.4 0.6 0.008
 0.2 0.4 0.6 0.008
 0.4 0.4 0.6 0.008
 0.6 0.4 0.6 0.008
 0.8 0.4 0.6 0.008
 0.0 0.6 0.6 0.008
 0.2 0.6 0.6 0.008
 0.4 0.6 0.6 0.008
 0.6 0.6 0.6 0.008
 0.8 0.6 0.6 0.008
 0.0 0.8 0.6 0.008
 0.2 0.8 0.6 0.008
 0.4 0.8 0.6 0.008
 0.6 0.8 0.6 0.008
 0.8 0.8 0.6 0.008
 0.0 0.0 0.8 0.008
 0.2 0.0 0.8 0.008
 0.4 0.0 0.8 0.008
 0.6 0.0 0.8 0.008
 0.8 0.0 0.8 0.008
 0.0 0.2 0.8 0.008
 0.2 0.2 0.8 0.008
 0.4 0.2 0.8 0.008
 0.6 0.2 0.8 0.008
 0.8 0.2 0.8 0.008
 0.0 0.4 0.8 0.008
 0.2 0.4 0.8 0.008
 0.4 0.4 0.8 0.008
 0.6 0.4 0.8 0.008
 0.8 0.4 0.8 0.008
 0.0 0.6 0.8 0.008
 0.2 0.6 0.8 0.008
 0.4 0.6 0.8 0.008
 0.6 0.6 0.8 0.008
 0.8 0.6 0.8 0.008
 0.0 0.8 0.8 0.008
 0.2 0.8 0.8 0.008
 0.4 0.8 0.8 0.008
 0.6 0.8 0.8 0.008
 0.8 0.8 0.8 0.008

Hubbard (ortho-atomic)
U Ni-3d 4.0
U Ni1-3d 4.0
