&control
  prefix = 'Ni'
  verbosity = 'high'
  calculation = 'vc-relax'
  outdir = './outputs'
  pseudo_dir = '.'
/

&system
  ibrav = 0
  nat = 2
  ntyp = 2
  starting_magnetization(1) = 0.1
  starting_magnetization(2) = -0.1
  ecutwfc = 40.0
  occupations = 'smearing'
  nbnd = 18
  nspin = 2
  degauss = 0.01
/

&electrons
  conv_thr = 1.0e-6
/

&ions
	ion_dynamics='bfgs'
/

&cell
	cell_dynamics ='bfgs'
/

ATOMIC_SPECIES
Ni 58.6934   Ni.UPF
Ni1 58.6934   Ni.UPF

CELL_PARAMETERS (angstrom)
4.957940101623535 0.0 0.0
1.2394850254058838 2.1468510392237925 0.0
1.2394850254058838 0.7156170130745974 2.0240705707100397

ATOMIC_POSITIONS (crystal) 
Ni  0.0 0.0 0.0
Ni1  0.5 0.0 0.0

K_POINTS (automatic)
 6 6 6 1 1 1

Hubbard (ortho-atomic)
U Ni-3d 4.0
U Ni1-3d 4.0
